91 1869
1 2 3 4 7 8 9 11 12 14 17 21 22 25 26 30 32 34 36 37 38 40 46 49 51 54 56 57 59 61 63 64 66 67 69 75 84 85 89
0 2 5 7 9 11 12 13 14 18 19 20 21 25 26 27 29 30 38 39 40 42 44 46 48 53 54 55 60 64 65 66 67 68 70 71 72 74 76 78 79 81 83 85 86 89
0 1 8 9 11 12 13 15 16 17 18 19 20 21 23 32 34 35 38 39 40 41 42 45 46 48 49 50 51 53 54 56 59 60 61 62 63 65 67 68 69 70 73 76 77 78 79 81 82 84 85 88 90
0 7 13 15 17 22 24 26 29 30 31 32 38 39 41 42 45 46 55 57 59 61 62 63 66 69 71 72 73 74 75 76 77 78 80 82 84 90
0 8 9 10 11 12 15 16 17 18 20 21 22 23 24 25 29 30 31 32 35 39 40 41 42 45 46 54 55 57 62 63 69 70 72 73 74 76 77 80 81 82 87
1 7 9 10 13 15 16 20 21 24 28 29 32 33 35 37 40 44 49 51 52 53 55 56 57 58 60 61 62 68 71 72 73 75 76 78 79 84 85 86 87 89 90
9 13 15 16 17 21 23 25 26 27 28 30 32 37 39 40 41 43 45 46 49 50 56 57 63 69 71 72 73 76 78 79 81 82 84 85 88 90
0 1 3 5 11 14 16 17 19 22 25 26 30 32 35 37 38 39 41 49 51 57 62 63 72 73 74 77 80 85 86 87 88 89 90
0 2 4 9 10 11 17 20 21 23 27 31 35 36 39 40 48 51 52 57 59 60 62 64 68 69 71 73 77 78 80 81 82 89 90
0 1 2 4 5 6 8 11 15 17 19 21 22 26 28 30 31 32 33 35 36 39 40 46 52 54 57 58 60 61 62 64 65 66 67 68 71 72 75 77 79 80 82 83 85 86 87 89 90
4 5 8 11 13 15 19 21 22 27 31 32 34 38 40 42 43 44 46 48 52 54 56 61 63 65 67 69 71 72 75 76 78 80 86 87 89
0 1 2 4 7 8 9 10 13 14 17 19 20 21 22 23 25 27 30 34 37 38 40 42 44 46 47 48 50 52 54 56 57 58 60 61 62 67 68 69 78 79 80 81 84 86 89 90
0 1 2 4 13 15 16 17 18 22 27 28 29 31 33 34 36 42 44 46 47 48 49 52 55 59 63 64 65 69 70 71 72 73 75 77 80 81 84 85 86 87 88 89 90
1 2 3 5 6 10 11 12 14 15 20 21 23 24 27 31 37 38 39 40 42 44 46 47 48 50 51 53 54 56 60 64 69 71 73 74 77 78 81 83 87 89 90
0 1 7 11 13 18 19 20 26 30 32 33 34 37 39 42 44 46 47 52 62 64 70 72 74 76 77 87 89
2 3 4 5 6 9 10 12 13 18 19 21 26 29 31 32 33 38 40 43 45 47 49 50 51 52 53 57 58 61 70 73 75 76 77 78 79 82 83 84 85 88 89 90
2 4 5 6 7 12 17 22 24 26 29 33 34 36 38 40 41 43 44 45 48 49 52 53 56 60 61 64 66 71 73 76 78 81 82 85 86 87 88
0 2 3 4 6 7 8 9 11 12 16 18 19 20 22 24 26 27 29 30 31 35 37 38 42 43 44 46 49 57 59 60 62 64 65 67 68 71 72 74 76 79 80 82 84 85 90
1 2 4 12 14 15 17 20 21 24 27 29 30 32 37 39 40 50 51 54 55 57 60 61 62 67 69 70 71 74 75 76 77 79 83 85 87 89
1 2 7 9 10 11 14 15 17 20 21 23 24 25 26 27 29 33 36 40 41 42 44 50 51 54 56 57 58 59 63 64 66 71 72 74 75 77 79 80 81 82 83 87 88 89
1 2 4 5 8 11 13 14 17 18 19 21 23 27 30 34 37 41 43 46 47 48 49 52 54 55 56 57 59 63 64 67 68 69 70 71 73 77 79 80 81 82 83 85 86 87 88 89
0 1 2 4 5 6 8 9 10 11 13 15 18 19 20 23 29 30 31 33 37 38 47 52 56 58 64 67 68 71 72 74 80 84 86 88
0 3 4 7 9 10 11 12 16 17 23 25 29 31 32 34 35 36 37 42 43 44 46 47 49 50 55 57 58 59 65 66 67 70 72 73 79 82 85 87
2 4 6 8 11 13 19 20 21 22 25 27 30 32 39 41 42 45 47 50 51 54 59 63 65 66 67 73 74 75 77 78 79 80 81 82 86 90
3 4 5 13 16 17 18 19 26 27 29 33 41 42 46 47 48 49 51 53 55 56 58 59 63 65 66 71 72 73 75 76 78 81 82 83 85 88 89
0 1 4 6 7 11 19 22 23 28 30 32 33 34 35 36 37 39 40 42 43 46 49 50 53 55 56 62 64 65 69 71 72 73 74 76 78 81 86 90
0 1 3 6 7 9 14 15 16 17 19 24 27 29 30 32 33 34 35 36 38 43 46 47 48 50 53 57 58 59 60 62 63 64 65 66 77 78 81 82 84 86 88 89
1 6 8 10 11 12 13 17 18 19 20 23 24 26 28 31 33 35 39 40 43 45 46 51 59 61 62 63 65 69 71 73 76 79 80 81 83 84 88 89
5 6 9 12 25 27 32 33 34 35 36 41 43 44 45 46 47 50 54 56 58 59 61 62 66 67 70 71 72 74 76 77 81 82 83 85
1 3 4 5 12 15 16 17 18 19 21 22 24 26 31 32 33 34 35 36 38 39 40 44 49 53 54 59 60 61 64 65 66 68 71 75 79 80 83 85 87 88 90
0 1 3 4 6 7 9 11 14 17 18 20 21 23 25 26 31 32 33 34 35 36 37 38 43 44 45 46 47 49 52 53 54 57 60 64 68 69 71 73 74 75 77 78 79 80 83 85
3 4 8 9 10 12 13 15 17 21 22 27 29 30 35 36 39 41 42 43 44 45 47 49 54 55 57 58 59 63 64 66 71 75 77 80 85 86 87 89 90
0 2 3 4 5 6 7 9 10 14 15 18 22 23 25 26 28 29 30 40 41 43 44 46 48 50 54 57 59 60 62 63 67 69 70 73 78 80 81 82 83 86 90
5 9 12 14 15 16 19 21 24 25 26 27 28 29 30 34 35 37 41 43 45 46 48 49 50 53 54 55 56 57 58 59 60 63 64 70 72 74 75 76 80 81 83 85 88 89 90
0 2 10 11 12 14 16 20 22 25 26 28 29 30 33 36 38 41 46 50 53 57 59 61 66 70 76 77 79 82 85 86 87 88 90
2 4 5 7 8 9 17 22 25 26 27 28 29 30 31 33 38 40 43 45 48 49 54 57 58 62 63 64 70 71 72 73 75 78 80 83 86 90
0 8 9 12 16 19 22 25 26 28 29 30 31 34 43 45 46 50 52 53 54 59 63 66 72 73 75 76 78 80 81 82 84 85 87 88
0 5 6 7 11 13 14 17 18 20 21 22 25 30 33 38 43 45 47 48 51 54 55 58 59 60 61 62 64 65 70 75 77 78 79 80 81 84 86 88 89 90
0 1 2 3 7 10 11 13 15 16 17 21 26 29 30 34 35 37 41 46 47 52 54 56 57 61 62 63 65 67 68 79 80 82 83 84 87 88
1 2 3 4 6 7 8 9 13 14 18 23 25 27 29 31 41 43 44 47 51 54 55 57 68 69 73 76 84 87
0 1 2 4 5 6 8 9 10 11 13 15 16 18 19 25 27 29 32 35 44 45 49 50 58 59 62 63 65 66 67 69 72 74 75 76 77 78 87 89 90
2 3 4 6 7 16 19 20 23 24 28 31 32 33 34 38 39 43 47 49 50 52 63 65 67 72 73 75 78 79 87
1 2 3 4 10 11 12 13 14 17 19 22 23 24 25 31 48 49 50 54 62 64 67 74 75 77 79 80 85 88 90
6 10 15 16 17 20 22 25 26 27 28 30 31 32 33 35 36 37 39 41 46 47 48 50 55 57 58 59 62 66 67 70 71 72 73 74 75 76 79 82 83 84 90
1 5 10 11 12 13 14 16 17 19 22 28 29 30 31 32 39 40 45 46 49 50 53 54 56 59 63 64 65 66 69 70 73 76 79 80 81 82 83 84 85 88 89
2 3 4 6 15 16 23 27 28 30 31 33 35 36 37 40 44 47 53 55 56 58 61 63 66 70 71 73 74 76 85 86 87 88
0 1 2 3 4 6 9 10 11 12 13 14 17 20 22 24 25 26 27 28 30 32 33 34 36 38 43 44 49 50 51 52 53 54 55 56 59 61 62 64 65 71 79 81 83 87 89
11 12 13 14 15 20 21 22 23 24 26 28 30 31 37 38 39 41 43 45 49 50 53 56 57 61 63 67 69 72 73 77 79 84 87 88 89 90
1 2 8 10 11 12 13 16 20 24 26 32 33 35 37 42 43 50 52 53 54 56 60 63 65 68 69 70 78 80 82 85 86 87
0 2 5 6 7 12 15 16 17 20 22 24 25 29 30 31 33 35 40 41 42 44 46 47 51 53 56 57 61 62 63 65 67 68 69 75 77 80 81 82 83 85 88 90
2 6 11 13 15 18 19 22 23 25 26 28 32 33 34 36 40 41 42 43 44 46 47 48 52 55 56 57 58 59 61 64 68 73 82 83 85 86 87 88 89
0 2 5 7 8 13 15 18 19 23 24 27 37 39 46 49 52 53 57 59 62 65 67 68 71 72 73 77 79 81 82 86 88 89 90
5 8 9 10 11 12 14 15 16 20 21 30 36 38 41 46 48 50 51 54 55 56 58 59 63 65 67 68 70 72 74 75 76 77 83 87 88
1 2 5 13 15 16 24 25 26 29 30 33 34 36 44 45 46 47 48 49 51 54 55 57 59 62 63 64 67 68 72 73 75 76 80 83 84 85 89
0 1 2 4 9 10 11 13 18 19 20 23 28 29 30 31 32 33 35 36 37 38 39 42 44 46 48 52 53 55 56 57 59 60 61 66 70 72 73 75 76 78 81 83 84 85 86 88
1 3 4 5 12 18 20 22 24 25 31 33 37 39 43 45 46 50 52 53 54 57 59 64 66 68 73 76 80 81 82 84 86 88 89
0 2 5 6 10 11 13 16 19 20 21 24 25 28 33 38 44 45 46 47 48 49 50 52 54 61 62 63 67 68 69 71 74 76 80 85 87
0 3 4 5 6 7 8 9 11 15 17 18 19 20 22 26 30 31 32 33 34 35 38 39 43 47 49 50 51 53 54 55 58 60 63 66 67 68 70 71 72 76 79 80 82 83 86 89
5 9 11 15 19 21 22 24 26 28 31 33 35 37 40 43 45 50 52 57 60 63 66 68 70 74 76 78 79 80 85 86 87 88
0 2 3 8 12 17 19 20 22 23 24 26 27 28 29 31 32 33 34 36 37 40 43 44 46 50 51 52 53 54 55 62 63 65 66 69 70 71 75 76 78 80 85 86 88 89
1 2 5 8 9 11 13 16 17 18 26 29 30 32 33 37 48 54 57 58 62 63 64 67 68 69 70 71 72 73 76 79 85 87 88 89
0 2 3 5 9 10 11 15 16 18 27 28 29 34 37 38 45 46 47 49 50 54 56 64 66 68 70 71 74 75 77 78 79 81 83 84 86 88 90
2 3 4 5 7 8 9 11 14 17 18 25 26 27 28 32 35 37 38 40 42 43 46 49 51 53 56 59 60 69 72 73 75 76 78 79 81 82 84 90
0 2 3 4 6 7 10 12 19 20 23 24 26 27 31 32 33 35 36 38 40 41 44 45 47 48 49 52 53 56 57 58 59 60 65 67 68 69 70 71 73 79 81 82 83 86 88 89 90
0 1 8 9 12 13 14 16 17 19 20 21 25 26 29 30 31 33 35 37 42 44 46 50 53 55 60 61 65 66 68 72 74 76 77 79 80 82 83 84 85 87 88 89
1 2 9 10 12 17 22 23 24 25 26 27 29 37 38 40 41 44 46 48 49 51 52 59 63 64 66 69 70 75 76 77 81 86 88
0 1 3 9 16 19 22 23 24 26 28 29 31 34 36 40 43 44 45 54 55 57 58 59 61 64 65 68 69 70 71 75 76 77 78 79 81 86 87 88 89 90
0 1 2 9 10 11 17 18 20 21 22 23 28 32 38 40 41 42 43 47 49 51 52 53 56 57 60 63 68 69 70 73 74 76 78 79 82 83 84 87 88
1 2 5 8 9 11 17 20 21 29 30 38 39 48 49 50 51 52 53 55 56 57 58 60 61 63 64 66 67 69 71 73 74 75 77 80 82 85 86 87 90
0 2 3 4 6 8 10 11 12 13 18 20 25 27 30 32 39 40 44 47 48 49 56 59 60 62 63 65 66 67 68 70 72 76 78 79 81 82 84 87 88 90
1 2 4 12 14 15 18 20 22 28 32 33 34 35 37 43 44 45 48 52 54 57 58 59 60 61 63 65 66 67 69 71 76 78 79 80 81 83 84 85 86 88
1 3 5 6 8 9 10 12 13 16 17 18 19 20 21 24 25 27 28 29 30 31 35 43 45 46 51 56 57 59 60 61 63 66 68 70 72 75 77 78
1 3 4 5 6 7 9 10 12 14 17 19 21 22 24 25 28 33 35 36 40 41 43 47 51 52 53 54 57 60 62 64 69 71 74 75 78 79 81 83 87 88
2 3 4 5 6 7 8 12 13 15 16 20 22 23 24 25 27 30 32 35 36 39 41 43 44 45 47 50 51 53 54 55 60 62 63 67 68 74 75 78 79 80 81 85 86 90
1 3 4 7 13 14 17 18 19 21 23 25 28 30 33 40 42 43 45 52 56 58 61 64 67 68 72 73 75 76 77 78 81 83 84 85 87 88 90
0 3 5 9 10 12 15 18 19 23 24 29 30 31 33 35 36 37 40 41 42 43 49 52 53 54 59 61 62 65 66 68 71 72 73 74 77 78 80 82 83 86 87 88 89 90
1 2 3 4 5 6 10 14 15 16 17 18 24 25 27 28 33 34 36 39 40 43 44 45 52 53 54 55 56 57 58 59 60 62 64 65 66 67 69 70 74 79 80 81 82 85 88 90
2 3 4 7 8 9 12 13 14 15 18 19 20 23 26 28 30 31 34 37 40 42 47 49 51 52 61 64 65 66 68 71 74 75 81 82 83 84 86 87 88
1 2 3 5 6 8 10 11 13 15 16 23 24 25 26 30 32 35 36 37 40 41 48 54 58 59 61 62 66 67 69 70 71 72 73 74 75 80 85 87
1 2 5 6 9 11 15 17 18 19 20 22 23 27 29 30 34 37 38 41 42 43 44 46 47 51 57 58 60 61 62 63 64 66 67 69 70 72 73 76 81 85 87 90
3 4 7 8 9 10 11 12 17 19 20 21 23 27 29 30 31 32 33 35 36 37 38 42 44 48 49 53 55 56 57 58 59 64 68 70 73 75 76 78 81 84 87 88 90
1 2 4 6 8 11 12 13 16 19 20 23 24 25 26 27 28 32 33 36 37 44 46 49 51 54 55 61 62 63 65 66 69 70 72 73 74 76 77 79 80 82 83 84 86 87 89
2 3 4 6 8 9 15 16 17 19 20 22 23 24 26 28 32 34 36 38 43 44 48 49 50 51 55 57 62 63 64 67 68 69 75 76 77 81 83 85 87 88
1 9 13 15 18 19 20 24 27 28 29 30 32 33 35 38 43 44 46 49 50 52 53 54 57 61 63 64 67 70 72 74 75 77 81 82 85 86 87 89 90
0 2 3 5 6 11 12 15 17 21 26 27 36 37 38 39 43 44 47 53 54 55 61 62 64 67 69 70 74 77 80 81 86
0 1 2 5 6 7 9 12 15 16 17 18 20 22 24 28 29 30 31 33 34 36 42 44 45 48 49 50 53 54 56 58 59 60 64 68 70 73 74 76 78 79 82 83 86 88 89
1 5 7 9 10 11 12 16 20 21 23 25 26 31 32 34 35 37 45 48 50 51 54 55 57 58 59 61 63 65 66 68 70 73 75 77 81 83 84 85 87 89
4 5 7 9 10 12 13 14 16 18 19 20 22 29 31 34 36 38 39 40 41 45 46 47 48 50 52 56 58 60 64 66 67 68 69 72 74 75 77 78 79 80 81 82 83 86 89 90
2 6 7 12 15 16 19 20 21 24 26 27 29 33 34 36 37 38 42 44 45 47 49 50 51 52 54 55 58 59 60 61 63 64 65 66 67 69 70 72 74 75 76 77 80 82 85 89 90
0 1 5 7 8 9 10 11 12 13 14 15 18 19 20 24 26 27 31 33 37 40 44 46 47 50 51 53 55 57 59 60 63 64 66 75 81 83 85 86 87 88
2 3 5 6 7 8 9 11 12 13 15 17 23 25 29 31 32 33 34 35 37 40 42 43 47 49 51 61 62 63 66 68 69 73 74 75 76 79 80 83 87 88
